* ENCODING=ISO-8859-1
NAME          CPLEX
ROWS
 N  obj1    
 G  c1      
 G  c2      
 G  c3      
 G  c4      
 G  c5      
 G  c6      
 G  c7      
 G  c8      
 G  c9      
 G  c10     
 G  c11     
 G  c12     
 G  c13     
 G  c14     
 G  c15     
 G  c16     
 G  c17     
 G  c18     
 G  c19     
 G  c20     
 G  c21     
 G  c22     
 G  c23     
 G  c24     
 G  c25     
 G  c26     
 G  c27     
 G  c28     
 G  c29     
 G  c30     
 G  c31     
 G  c32     
 G  c33     
 G  c34     
 G  c35     
COLUMNS
    MARK0000  'MARKER'                 'INTORG'
    x1        obj1                            1
    x1        c11                           126
    x1        c24                           950
    x1        c28                           968
    x1        c33                           559
    x2        obj1                            1
    x2        c12                           391
    x2        c26                           528
    x3        obj1                            1
    x3        c12                           342
    x3        c19                           150
    x3        c24                           823
    x3        c30                           774
    x4        obj1                            1
    x4        c4                            320
    x4        c8                            374
    x4        c18                           517
    x4        c22                           705
    x4        c23                           264
    x5        obj1                            1
    x5        c1                            425
    x5        c16                           954
    x5        c17                           717
    x5        c28                           918
    x5        c29                           897
    x6        obj1                            1
    x6        c8                            677
    x6        c14                           164
    x7        obj1                            1
    x7        c2                            976
    x7        c20                           315
    x7        c22                           525
    x7        c29                           760
    x8        obj1                            1
    x8        c11                           331
    x8        c17                           793
    x8        c35                           882
    x9        obj1                            1
    x9        c23                           818
    x9        c26                           413
    x10       obj1                            1
    x10       c6                            107
    x10       c21                           742
    x10       c22                           227
    x11       obj1                            1
    x11       c12                           142
    x12       obj1                            1
    x12       c22                           587
    x12       c30                           376
    x13       obj1                            1
    x13       c2                            990
    x13       c8                            681
    x13       c11                           428
    x13       c13                           573
    x13       c15                           865
    x13       c24                           687
    x14       obj1                            1
    x14       c2                            405
    x14       c8                            593
    x14       c14                           370
    x14       c18                           568
    x15       obj1                            1
    x15       c2                            163
    x15       c20                           349
    x15       c28                           736
    x15       c31                           720
    x16       obj1                            1
    x16       c3                            713
    x16       c16                           839
    x16       c17                           907
    x16       c18                           526
    x16       c21                           996
    x16       c30                           365
    x17       obj1                            1
    x17       c6                            922
    x17       c8                            606
    x17       c19                           788
    x17       c32                           468
    x18       obj1                            1
    x18       c4                            803
    x18       c16                           537
    x18       c21                           999
    x18       c28                           695
    x18       c29                           462
    x18       c32                           559
    x19       obj1                            1
    x19       c11                           906
    x19       c14                           883
    x19       c30                           405
    x20       obj1                            1
    x20       c9                            184
    x20       c14                           758
    x20       c18                           739
    x20       c28                           661
    x21       obj1                            1
    x21       c1                            223
    x21       c15                           209
    x21       c20                           662
    x22       obj1                            1
    x22       c3                            265
    x22       c16                           409
    x22       c21                           260
    x22       c28                           685
    x23       obj1                            1
    x23       c3                            522
    x23       c5                            158
    x23       c19                           566
    x23       c30                           458
    x24       obj1                            1
    x24       c15                           905
    x24       c17                           732
    x25       obj1                            1
    x25       c23                           853
    x25       c26                           667
    x25       c29                           302
    x26       obj1                            1
    x26       c10                           474
    x26       c17                           647
    x26       c22                           858
    x27       obj1                            1
    x27       c7                            207
    x27       c21                           999
    x28       obj1                            1
    x28       c5                            547
    x28       c18                           905
    x28       c19                           420
    x28       c23                           525
    x28       c29                           322
    x28       c31                           396
    x28       c32                           279
    x29       obj1                            1
    x29       c4                            104
    x29       c16                           767
    x29       c20                           430
    x29       c23                           962
    x30       obj1                            1
    x30       c6                            696
    x30       c26                           112
    x31       obj1                            1
    x31       c3                            881
    x31       c19                           989
    x31       c23                           114
    x31       c34                           883
    x32       obj1                            1
    x32       c6                            898
    x32       c17                           118
    x32       c20                           710
    x32       c23                           161
    x32       c29                           244
    x33       obj1                            1
    x33       c3                            303
    x33       c5                            432
    x33       c11                           367
    x33       c33                           811
    x34       obj1                            1
    x34       c4                            698
    x34       c15                           799
    x34       c20                           261
    x34       c25                           251
    x34       c31                           550
    x35       obj1                            1
    x35       c5                            684
    x35       c21                           804
    x35       c27                           127
    x35       c30                           662
    x36       obj1                            1
    x36       c6                            667
    x36       c11                           496
    x36       c18                           398
    x37       obj1                            1
    x37       c10                           271
    x37       c22                           779
    x37       c33                           109
    x38       obj1                            1
    x38       c12                           216
    x38       c13                           780
    x38       c21                           903
    x38       c25                           837
    x38       c30                           788
    x39       obj1                            1
    x39       c5                            919
    x39       c12                           461
    x40       obj1                            1
    x40       c1                            807
    x40       c5                            975
    x40       c11                           624
    x40       c23                           394
    x40       c33                          1000
    x41       obj1                            1
    x41       c2                            491
    x41       c6                            199
    x41       c7                            717
    x41       c24                           829
    x41       c32                           603
    x42       obj1                            1
    x42       c11                           386
    x42       c15                           434
    x42       c20                           374
    x42       c25                           659
    x42       c30                           524
    x43       obj1                            1
    x43       c2                            522
    x43       c3                            736
    x43       c7                            337
    x43       c9                            724
    x43       c15                           531
    x43       c24                           980
    x43       c31                           810
    x43       c32                           374
    x44       obj1                            1
    x44       c9                            433
    x44       c18                           655
    x45       obj1                            1
    x45       c7                            759
    x45       c17                           923
    x45       c20                           328
    x45       c27                           914
    x45       c29                           205
    x46       obj1                            1
    x46       c6                            220
    x47       obj1                            1
    x47       c4                            543
    x47       c12                           290
    x47       c28                           427
    x48       obj1                            1
    x48       c12                           514
    x49       obj1                            1
    x49       c4                            334
    x49       c10                           427
    x49       c14                           476
    x49       c22                           465
    x49       c24                           890
    x49       c28                           601
    x49       c30                           247
    x49       c34                           831
    x50       obj1                            1
    x50       c8                            407
    x50       c9                            109
    x50       c22                           803
    x50       c34                           180
    x51       obj1                            1
    x51       c19                           109
    x52       obj1                            1
    x52       c1                            591
    x52       c21                           651
    x52       c23                           135
    x52       c29                           414
    x52       c34                           796
    x53       obj1                            1
    x53       c21                           288
    x53       c25                           350
    x54       obj1                            1
    x54       c14                           260
    x54       c24                           941
    x54       c29                           951
    x55       obj1                            1
    x55       c16                           957
    x55       c25                           278
    x56       obj1                            1
    x56       c10                           946
    x56       c13                           463
    x56       c20                           423
    x57       obj1                            1
    x57       c1                            935
    x57       c3                            838
    x57       c5                            134
    x57       c10                           278
    x57       c12                           844
    x57       c14                           208
    x57       c27                           925
    x58       obj1                            1
    x58       c5                            965
    x58       c23                           959
    x58       c24                           223
    x58       c25                           370
    x58       c35                           855
    x59       obj1                            1
    x59       c1                            316
    x59       c4                            449
    x59       c22                           565
    x59       c31                           635
    x60       obj1                            1
    x60       c3                            504
    x60       c11                           815
    x60       c26                           318
    x60       c27                           806
    x60       c29                           459
    x61       obj1                            1
    x61       c13                           450
    x61       c16                           171
    x62       obj1                            1
    x62       c19                           410
    x62       c26                           560
    x62       c35                           549
    x63       obj1                            1
    x63       c13                           446
    x63       c22                           795
    x63       c24                           432
    x63       c27                           356
    x64       obj1                            1
    x64       c7                            614
    x64       c28                           883
    x64       c35                           271
    x65       obj1                            1
    x65       c18                           257
    x65       c27                           659
    x65       c28                           273
    x66       obj1                            1
    x66       c11                           925
    x66       c19                           301
    x66       c21                           422
    x66       c27                           840
    x67       obj1                            1
    x67       c5                            647
    x67       c19                           323
    x68       obj1                            1
    x68       c2                            670
    x68       c7                            167
    x68       c14                           368
    x68       c15                           514
    x68       c18                           772
    x68       c32                           480
    x69       obj1                            1
    x69       c4                            876
    x69       c16                           882
    x69       c32                           224
    x70       obj1                            1
    x70       c6                            620
    x70       c9                            738
    x70       c12                           904
    x70       c26                           750
    MARK0001  'MARKER'                 'INTEND'
RHS
    rhs       c1                           1649
    rhs       c2                           2109
    rhs       c3                           2381
    rhs       c4                           2064
    rhs       c5                           2731
    rhs       c6                           2165
    rhs       c7                           1401
    rhs       c8                           1669
    rhs       c9                           1094
    rhs       c10                          1198
    rhs       c11                          2702
    rhs       c12                          2052
    rhs       c13                          1356
    rhs       c14                          1744
    rhs       c15                          2129
    rhs       c16                          2758
    rhs       c17                          2419
    rhs       c18                          2669
    rhs       c19                          2028
    rhs       c20                          1926
    rhs       c21                          3532
    rhs       c22                          3155
    rhs       c23                          2593
    rhs       c24                          3378
    rhs       c25                          1373
    rhs       c26                          1674
    rhs       c27                          2314
    rhs       c28                          3424
    rhs       c29                          2508
    rhs       c30                          2300
    rhs       c31                          1556
    rhs       c32                          1494
    rhs       c33                          1240
    rhs       c34                          1345
    rhs       c35                          1279
BOUNDS
 LI bnd       x1        0
 LI bnd       x2        0
 LI bnd       x3        0
 LI bnd       x4        0
 LI bnd       x5        0
 LI bnd       x6        0
 LI bnd       x7        0
 LI bnd       x8        0
 LI bnd       x9        0
 LI bnd       x10       0
 LI bnd       x11       0
 LI bnd       x12       0
 LI bnd       x13       0
 LI bnd       x14       0
 LI bnd       x15       0
 LI bnd       x16       0
 LI bnd       x17       0
 LI bnd       x18       0
 LI bnd       x19       0
 LI bnd       x20       0
 LI bnd       x21       0
 LI bnd       x22       0
 LI bnd       x23       0
 LI bnd       x24       0
 LI bnd       x25       0
 LI bnd       x26       0
 LI bnd       x27       0
 LI bnd       x28       0
 LI bnd       x29       0
 LI bnd       x30       0
 LI bnd       x31       0
 LI bnd       x32       0
 LI bnd       x33       0
 LI bnd       x34       0
 LI bnd       x35       0
 LI bnd       x36       0
 LI bnd       x37       0
 LI bnd       x38       0
 LI bnd       x39       0
 LI bnd       x40       0
 LI bnd       x41       0
 LI bnd       x42       0
 LI bnd       x43       0
 LI bnd       x44       0
 LI bnd       x45       0
 LI bnd       x46       0
 LI bnd       x47       0
 LI bnd       x48       0
 LI bnd       x49       0
 LI bnd       x50       0
 LI bnd       x51       0
 LI bnd       x52       0
 LI bnd       x53       0
 LI bnd       x54       0
 LI bnd       x55       0
 LI bnd       x56       0
 LI bnd       x57       0
 LI bnd       x58       0
 LI bnd       x59       0
 LI bnd       x60       0
 LI bnd       x61       0
 LI bnd       x62       0
 LI bnd       x63       0
 LI bnd       x64       0
 LI bnd       x65       0
 LI bnd       x66       0
 LI bnd       x67       0
 LI bnd       x68       0
 LI bnd       x69       0
 LI bnd       x70       0
ENDATA
